n_machines = 5;
n_resources = 6;
n_jobs = 31;
horizon = 127;
LB = 45;
n_jobs_per_resource = [2, 9, 8, 1, 2, 9];
duration = [2, 9, 7, 4, 5, 8, 4, 9, 1, 1, 6, 6, 2, 3, 4, 2, 2, 3, 2, 4, 1, 1, 8, 9, 3, 5, 2, 4, 3, 5, 2]